NAME : CMT10
TYPE : CVRP
COMMENT : 1395.85
DIMENSION : 200
VEHICLES  : 18
CAPACITY : 200
DISTANCE : 180
SERVICE_TIME: 10
EDGE_WEIGHT_TYPE : EXACT_2D
NODE_COORD_SECTION
1 22.00000 22.00000
2 36.00000 26.00000
3 21.00000 45.00000
4 45.00000 35.00000
5 55.00000 20.00000
6 33.00000 34.00000
7 50.00000 50.00000
8 55.00000 45.00000
9 26.00000 59.00000
10 40.00000 66.00000
11 55.00000 65.00000
12 35.00000 51.00000
13 62.00000 35.00000
14 62.00000 57.00000
15 62.00000 24.00000
16 21.00000 36.00000
17 33.00000 44.00000
18 9.00000 56.00000
19 62.00000 48.00000
20 66.00000 14.00000
21 44.00000 13.00000
22 26.00000 13.00000
23 11.00000 28.00000
24 7.00000 43.00000
25 17.00000 64.00000
26 41.00000 46.00000
27 55.00000 34.00000
28 35.00000 16.00000
29 52.00000 26.00000
30 43.00000 26.00000
31 31.00000 76.00000
32 22.00000 53.00000
33 26.00000 29.00000
34 50.00000 40.00000
35 55.00000 50.00000
36 54.00000 10.00000
37 60.00000 15.00000
38 47.00000 66.00000
39 30.00000 60.00000
40 30.00000 50.00000
41 12.00000 17.00000
42 15.00000 14.00000
43 16.00000 19.00000
44 21.00000 48.00000
45 50.00000 30.00000
46 51.00000 42.00000
47 50.00000 15.00000
48 48.00000 21.00000
49 12.00000 38.00000
50 37.00000 52.00000
51 49.00000 49.00000
52 52.00000 64.00000
53 20.00000 26.00000
54 40.00000 30.00000
55 21.00000 47.00000
56 17.00000 63.00000
57 31.00000 62.00000
58 52.00000 33.00000
59 51.00000 21.00000
60 42.00000 41.00000
61 31.00000 32.00000
62 5.00000 25.00000
63 12.00000 42.00000
64 36.00000 16.00000
65 52.00000 41.00000
66 27.00000 23.00000
67 17.00000 33.00000
68 13.00000 13.00000
69 57.00000 58.00000
70 62.00000 42.00000
71 42.00000 57.00000
72 16.00000 57.00000
73 8.00000 52.00000
74 7.00000 38.00000
75 27.00000 68.00000
76 30.00000 48.00000
77 43.00000 67.00000
78 58.00000 48.00000
79 58.00000 27.00000
80 37.00000 69.00000
81 38.00000 46.00000
82 46.00000 10.00000
83 61.00000 33.00000
84 62.00000 63.00000
85 63.00000 69.00000
86 32.00000 22.00000
87 45.00000 35.00000
88 59.00000 15.00000
89 5.00000 6.00000
90 10.00000 17.00000
91 21.00000 10.00000
92 5.00000 64.00000
93 30.00000 15.00000
94 39.00000 10.00000
95 32.00000 39.00000
96 25.00000 32.00000
97 25.00000 55.00000
98 48.00000 28.00000
99 56.00000 37.00000
100 41.00000 49.00000
101 35.00000 17.00000
102 55.00000 45.00000
103 55.00000 20.00000
104 15.00000 30.00000
105 25.00000 30.00000
106 20.00000 50.00000
107 10.00000 43.00000
108 55.00000 60.00000
109 30.00000 60.00000
110 20.00000 65.00000
111 50.00000 35.00000
112 30.00000 25.00000
113 15.00000 10.00000
114 30.00000 5.00000
115 10.00000 20.00000
116 5.00000 30.00000
117 20.00000 40.00000
118 15.00000 60.00000
119 45.00000 65.00000
120 45.00000 20.00000
121 45.00000 10.00000
122 55.00000 5.00000
123 65.00000 35.00000
124 65.00000 20.00000
125 45.00000 30.00000
126 35.00000 40.00000
127 41.00000 37.00000
128 64.00000 42.00000
129 40.00000 60.00000
130 31.00000 52.00000
131 35.00000 69.00000
132 53.00000 52.00000
133 65.00000 55.00000
134 63.00000 65.00000
135 2.00000 60.00000
136 20.00000 20.00000
137 5.00000 5.00000
138 60.00000 12.00000
139 40.00000 25.00000
140 42.00000 7.00000
141 24.00000 12.00000
142 23.00000 3.00000
143 11.00000 14.00000
144 6.00000 38.00000
145 2.00000 48.00000
146 8.00000 56.00000
147 13.00000 52.00000
148 6.00000 68.00000
149 47.00000 47.00000
150 49.00000 58.00000
151 27.00000 43.00000
152 37.00000 31.00000
153 57.00000 29.00000
154 63.00000 23.00000
155 53.00000 12.00000
156 32.00000 12.00000
157 36.00000 26.00000
158 21.00000 24.00000
159 17.00000 34.00000
160 12.00000 24.00000
161 24.00000 58.00000
162 27.00000 69.00000
163 15.00000 77.00000
164 62.00000 77.00000
165 49.00000 73.00000
166 67.00000 5.00000
167 56.00000 39.00000
168 37.00000 47.00000
169 37.00000 56.00000
170 57.00000 68.00000
171 47.00000 16.00000
172 44.00000 17.00000
173 46.00000 13.00000
174 49.00000 11.00000
175 49.00000 42.00000
176 53.00000 43.00000
177 61.00000 52.00000
178 57.00000 48.00000
179 56.00000 37.00000
180 55.00000 54.00000
181 15.00000 47.00000
182 14.00000 37.00000
183 11.00000 31.00000
184 16.00000 22.00000
185 4.00000 18.00000
186 28.00000 18.00000
187 26.00000 52.00000
188 26.00000 35.00000
189 31.00000 67.00000
190 15.00000 19.00000
191 22.00000 22.00000
192 18.00000 24.00000
193 26.00000 27.00000
194 25.00000 24.00000
195 22.00000 27.00000
196 25.00000 21.00000
197 19.00000 21.00000
198 20.00000 26.00000
199 18.00000 18.00000
200 35.00000 35.00000
DEMAND_SECTION
1 18
2 26
3 11
4 30
5 21
6 19
7 15
8 16
9 29
10 26
11 37
12 16
13 12
14 31
15 8
16 19
17 20
18 13
19 15
20 22
21 28
22 12
23 6
24 27
25 14
26 18
27 17
28 29
29 13
30 22
31 25
32 28
33 27
34 19
35 10
36 12
37 14
38 24
39 16
40 33
41 15
42 11
43 18
44 17
45 21
46 27
47 19
48 20
49 5
50 7
51 30
52 16
53 9
54 21
55 15
56 19
57 23
58 11
59 5
60 19
61 29
62 23
63 21
64 10
65 15
66 3
67 41
68 9
69 28
70 8
71 8
72 16
73 10
74 28
75 7
76 15
77 14
78 6
79 19
80 11
81 12
82 23
83 26
84 17
85 6
86 9
87 15
88 14
89 7
90 27
91 13
92 11
93 16
94 10
95 5
96 25
97 17
98 18
99 10
100 10
101 7
102 13
103 19
104 26
105 3
106 5
107 9
108 16
109 16
110 12
111 19
112 23
113 20
114 8
115 19
116 2
117 12
118 17
119 9
120 11
121 18
122 29
123 3
124 6
125 17
126 16
127 16
128 9
129 21
130 27
131 23
132 11
133 14
134 8
135 5
136 8
137 16
138 31
139 9
140 5
141 5
142 7
143 18
144 16
145 1
146 27
147 36
148 30
149 13
150 10
151 9
152 14
153 18
154 2
155 6
156 7
157 18
158 28
159 3
160 13
161 19
162 10
163 9
164 20
165 25
166 25
167 36
168 6
169 5
170 15
171 25
172 9
173 8
174 18
175 13
176 14
177 3
178 23
179 6
180 26
181 16
182 11
183 7
184 41
185 35
186 26
187 9
188 15
189 3
190 1
191 2
192 22
193 27
194 20
195 11
196 12
197 10
198 9
199 17
200 0
DEPOT_SECTION
200
-1
EOF
